\ Model UAVstrike
\ LP format - for model browsing. Use MPS format to capture full model detail.
Minimize
  0.1 C90 + 0.1 C91 + 0.1 C92 + 0.1 C93 + 0.1 C94 + 0.1 C95 + C96
Subject To
 R0: C20 + C23 + C26 + C29 + C32 + C40 + C46 + C52 + C58 + C64 = 1
 R1: C5 + C8 + C11 + C14 + C17 + C43 + C49 + C55 + C61 + C67 = 1
 R2: C22 + C25 + C28 + C31 + C34 + C42 + C48 + C54 + C60 + C66 = 1
 R3: C7 + C10 + C13 + C16 + C19 + C45 + C51 + C57 + C63 + C69 = 1
 R4: C0 + C1 + C2 + C3 + C4 + C21 + C24 + C27 + C30 + C33 + C41 + C47 + C53
   + C59 + C65 = 1
 R5: C6 + C9 + C12 + C15 + C18 + C35 + C36 + C37 + C38 + C39 + C44 + C50
   + C56 + C62 + C68 = 1
 R6: C20 + C23 + C26 + C29 + C32 + C40 + C46 + C52 + C58 + C64 <= 1
 R7: C5 + C8 + C11 + C14 + C17 + C43 + C49 + C55 + C61 + C67 <= 1
 R8: C22 + C25 + C28 + C31 + C34 + C42 + C48 + C54 + C60 + C66 <= 1
 R9: C7 + C10 + C13 + C16 + C19 + C45 + C51 + C57 + C63 + C69 <= 1
 R10: C0 + C1 + C2 + C3 + C4 + C21 + C24 + C27 + C30 + C33 + C41 + C47
   + C53 + C59 + C65 <= 1
 R11: C6 + C9 + C12 + C15 + C18 + C35 + C36 + C37 + C38 + C39 + C44 + C50
   + C56 + C62 + C68 <= 1
 R12: C20 + C21 + C22 + C40 + C41 + C42 <= 1
 R13: C5 + C6 + C7 + C43 + C44 + C45 <= 1
 R14: C23 + C24 + C25 + C46 + C47 + C48 <= 1
 R15: C8 + C9 + C10 + C49 + C50 + C51 <= 1
 R16: C26 + C27 + C28 + C52 + C53 + C54 <= 1
 R17: C11 + C12 + C13 + C55 + C56 + C57 <= 1
 R18: C29 + C30 + C31 + C58 + C59 + C60 <= 1
 R19: C14 + C15 + C16 + C61 + C62 + C63 <= 1
 R20: C32 + C33 + C34 + C64 + C65 + C66 <= 1
 R21: C17 + C18 + C19 + C67 + C68 + C69 <= 1
 R22: C70 + C75 + C80 <= 1
 R23: C71 + C76 + C81 <= 1
 R24: C72 + C77 + C82 <= 1
 R25: C73 + C78 + C83 <= 1
 R26: C74 + C79 + C84 <= 1
 R27: C20 + C21 + C22 + C40 + C41 + C42 + 3 C75 + 3 C80 <= 1
 R28: C5 + C6 + C7 + C43 + C44 + C45 + 3 C70 + 3 C80 <= 1
 R29: C23 + C24 + C25 + C46 + C47 + C48 + 3 C76 + 3 C81 <= 1
 R30: C8 + C9 + C10 + C49 + C50 + C51 + 3 C71 + 3 C81 <= 1
 R31: C26 + C27 + C28 + C52 + C53 + C54 + 3 C77 + 3 C82 <= 1
 R32: C11 + C12 + C13 + C55 + C56 + C57 + 3 C72 + 3 C82 <= 1
 R33: C29 + C30 + C31 + C58 + C59 + C60 + 3 C78 + 3 C83 <= 1
 R34: C14 + C15 + C16 + C61 + C62 + C63 + 3 C73 + 3 C83 <= 1
 R35: C32 + C33 + C34 + C64 + C65 + C66 + 3 C79 + 3 C84 <= 1
 R36: C17 + C18 + C19 + C67 + C68 + C69 + 3 C74 + 3 C84 <= 1
 R37: C40 + C41 + C42 + C43 + C44 + C45 + C80 = 1
 R38: C46 + C47 + C48 + C49 + C50 + C51 + C81 = 1
 R39: C52 + C53 + C54 + C55 + C56 + C57 + C82 = 1
 R40: C58 + C59 + C60 + C61 + C62 + C63 + C83 = 1
 R41: C64 + C65 + C66 + C67 + C68 + C69 + C84 = 1
 R42: C0 - C20 - C40 <= 0
 R43: C1 - C23 - C46 <= 0
 R44: C2 - C26 - C52 <= 0
 R45: C3 - C29 - C58 <= 0
 R46: C4 - C32 - C64 <= 0
 R47: - C5 + C35 - C43 <= 0
 R48: - C8 + C36 - C49 <= 0
 R49: - C11 + C37 - C55 <= 0
 R50: - C14 + C38 - C61 <= 0
 R51: - C17 + C39 - C67 <= 0
 R52: 500 C5 + 500 C20 + 500 C40 - C90 + C93 <= 1029
 R53: - 500 C5 - 500 C20 - 500 C40 - C90 + C93 >= -971
 R54: 500 C5 + 500 C22 + 500 C42 - C92 + C93 <= 1029
 R55: - 500 C5 - 500 C22 - 500 C42 - C92 + C93 >= -971
 R56: 500 C7 + 500 C20 + 500 C40 - C90 + C95 <= 1012
 R57: - 500 C7 - 500 C20 - 500 C40 - C90 + C95 >= -988
 R58: 500 C7 + 500 C22 + 500 C42 - C92 + C95 <= 1012
 R59: - 500 C7 - 500 C22 - 500 C42 - C92 + C95 >= -988
 R60: 500 C8 + 500 C23 + 500 C46 - C90 + C93 <= 1008
 R61: - 500 C8 - 500 C23 - 500 C46 - C90 + C93 >= -992
 R62: 500 C8 + 500 C25 + 500 C48 - C92 + C93 <= 1008
 R63: - 500 C8 - 500 C25 - 500 C48 - C92 + C93 >= -992
 R64: 500 C10 + 500 C23 + 500 C46 - C90 + C95 <= 1028
 R65: - 500 C10 - 500 C23 - 500 C46 - C90 + C95 >= -972
 R66: 500 C10 + 500 C25 + 500 C48 - C92 + C95 <= 1028
 R67: - 500 C10 - 500 C25 - 500 C48 - C92 + C95 >= -972
 R68: 500 C11 + 500 C26 + 500 C52 - C90 + C93 <= 1026
 R69: - 500 C11 - 500 C26 - 500 C52 - C90 + C93 >= -974
 R70: 500 C11 + 500 C28 + 500 C54 - C92 + C93 <= 1026
 R71: - 500 C11 - 500 C28 - 500 C54 - C92 + C93 >= -974
 R72: 500 C13 + 500 C26 + 500 C52 - C90 + C95 <= 1026
 R73: - 500 C13 - 500 C26 - 500 C52 - C90 + C95 >= -974
 R74: 500 C13 + 500 C28 + 500 C54 - C92 + C95 <= 1026
 R75: - 500 C13 - 500 C28 - 500 C54 - C92 + C95 >= -974
 R76: 500 C14 + 500 C29 + 500 C58 - C90 + C93 <= 1030
 R77: - 500 C14 - 500 C29 - 500 C58 - C90 + C93 >= -970
 R78: 500 C14 + 500 C31 + 500 C60 - C92 + C93 <= 1030
 R79: - 500 C14 - 500 C31 - 500 C60 - C92 + C93 >= -970
 R80: 500 C16 + 500 C29 + 500 C58 - C90 + C95 <= 1021
 R81: - 500 C16 - 500 C29 - 500 C58 - C90 + C95 >= -979
 R82: 500 C16 + 500 C31 + 500 C60 - C92 + C95 <= 1021
 R83: - 500 C16 - 500 C31 - 500 C60 - C92 + C95 >= -979
 R84: 500 C17 + 500 C32 + 500 C64 - C90 + C93 <= 1029
 R85: - 500 C17 - 500 C32 - 500 C64 - C90 + C93 >= -971
 R86: 500 C17 + 500 C34 + 500 C66 - C92 + C93 <= 1029
 R87: - 500 C17 - 500 C34 - 500 C66 - C92 + C93 >= -971
 R88: 500 C19 + 500 C32 + 500 C64 - C90 + C95 <= 1005
 R89: - 500 C19 - 500 C32 - 500 C64 - C90 + C95 >= -995
 R90: 500 C19 + 500 C34 + 500 C66 - C92 + C95 <= 1005
 R91: - 500 C19 - 500 C34 - 500 C66 - C92 + C95 >= -995
 R92: 500 C5 + 500 C20 + 500 C43 + C90 - C93 <= 1014
 R93: - 500 C5 - 500 C20 - 500 C43 + C90 - C93 >= -986
 R94: 500 C7 + 500 C20 + 500 C45 + C90 - C95 <= 1014
 R95: - 500 C7 - 500 C20 - 500 C45 + C90 - C95 >= -986
 R96: 500 C5 + 500 C22 + 500 C43 + C92 - C93 <= 1016
 R97: - 500 C5 - 500 C22 - 500 C43 + C92 - C93 >= -984
 R98: 500 C7 + 500 C22 + 500 C45 + C92 - C95 <= 1016
 R99: - 500 C7 - 500 C22 - 500 C45 + C92 - C95 >= -984
 R100: 500 C8 + 500 C23 + 500 C49 + C90 - C93 <= 1016
 R101: - 500 C8 - 500 C23 - 500 C49 + C90 - C93 >= -984
 R102: 500 C10 + 500 C23 + 500 C51 + C90 - C95 <= 1016
 R103: - 500 C10 - 500 C23 - 500 C51 + C90 - C95 >= -984
 R104: 500 C8 + 500 C25 + 500 C49 + C92 - C93 <= 1028
 R105: - 500 C8 - 500 C25 - 500 C49 + C92 - C93 >= -972
 R106: 500 C10 + 500 C25 + 500 C51 + C92 - C95 <= 1028
 R107: - 500 C10 - 500 C25 - 500 C51 + C92 - C95 >= -972
 R108: 500 C11 + 500 C26 + 500 C55 + C90 - C93 <= 1005
 R109: - 500 C11 - 500 C26 - 500 C55 + C90 - C93 >= -995
 R110: 500 C13 + 500 C26 + 500 C57 + C90 - C95 <= 1005
 R111: - 500 C13 - 500 C26 - 500 C57 + C90 - C95 >= -995
 R112: 500 C11 + 500 C28 + 500 C55 + C92 - C93 <= 1011
 R113: - 500 C11 - 500 C28 - 500 C55 + C92 - C93 >= -989
 R114: 500 C13 + 500 C28 + 500 C57 + C92 - C95 <= 1011
 R115: - 500 C13 - 500 C28 - 500 C57 + C92 - C95 >= -989
 R116: 500 C14 + 500 C29 + 500 C61 + C90 - C93 <= 1023
 R117: - 500 C14 - 500 C29 - 500 C61 + C90 - C93 >= -977
 R118: 500 C16 + 500 C29 + 500 C63 + C90 - C95 <= 1023
 R119: - 500 C16 - 500 C29 - 500 C63 + C90 - C95 >= -977
 R120: 500 C14 + 500 C31 + 500 C61 + C92 - C93 <= 1027
 R121: - 500 C14 - 500 C31 - 500 C61 + C92 - C93 >= -973
 R122: 500 C16 + 500 C31 + 500 C63 + C92 - C95 <= 1027
 R123: - 500 C16 - 500 C31 - 500 C63 + C92 - C95 >= -973
 R124: 500 C17 + 500 C32 + 500 C67 + C90 - C93 <= 1028
 R125: - 500 C17 - 500 C32 - 500 C67 + C90 - C93 >= -972
 R126: 500 C19 + 500 C32 + 500 C69 + C90 - C95 <= 1028
 R127: - 500 C19 - 500 C32 - 500 C69 + C90 - C95 >= -972
 R128: 500 C17 + 500 C34 + 500 C67 + C92 - C93 <= 1020
 R129: - 500 C17 - 500 C34 - 500 C67 + C92 - C93 >= -980
 R130: 500 C19 + 500 C34 + 500 C69 + C92 - C95 <= 1020
 R131: - 500 C19 - 500 C34 - 500 C69 + C92 - C95 >= -980
 R132: 500 C0 + 500 C20 + 500 C40 - C90 + C91 <= 1030
 R133: - 500 C0 - 500 C20 - 500 C40 - C90 + C91 >= -970
 R134: 500 C1 + 500 C23 + 500 C46 - C90 + C91 <= 1023
 R135: - 500 C1 - 500 C23 - 500 C46 - C90 + C91 >= -977
 R136: 500 C2 + 500 C26 + 500 C52 - C90 + C91 <= 1012
 R137: - 500 C2 - 500 C26 - 500 C52 - C90 + C91 >= -988
 R138: 500 C3 + 500 C29 + 500 C58 - C90 + C91 <= 1014
 R139: - 500 C3 - 500 C29 - 500 C58 - C90 + C91 >= -986
 R140: 500 C4 + 500 C32 + 500 C64 - C90 + C91 <= 1002
 R141: - 500 C4 - 500 C32 - 500 C64 - C90 + C91 >= -998
 R142: 500 C6 + 500 C20 + 500 C40 - C90 + C94 <= 1018
 R143: - 500 C6 - 500 C20 - 500 C40 - C90 + C94 >= -982
 R144: 500 C6 + 500 C22 + 500 C42 - C92 + C94 <= 1018
 R145: - 500 C6 - 500 C22 - 500 C42 - C92 + C94 >= -982
 R146: 500 C9 + 500 C23 + 500 C46 - C90 + C94 <= 1024
 R147: - 500 C9 - 500 C23 - 500 C46 - C90 + C94 >= -976
 R148: 500 C9 + 500 C25 + 500 C48 - C92 + C94 <= 1024
 R149: - 500 C9 - 500 C25 - 500 C48 - C92 + C94 >= -976
 R150: 500 C12 + 500 C26 + 500 C52 - C90 + C94 <= 1013
 R151: - 500 C12 - 500 C26 - 500 C52 - C90 + C94 >= -987
 R152: 500 C12 + 500 C28 + 500 C54 - C92 + C94 <= 1013
 R153: - 500 C12 - 500 C28 - 500 C54 - C92 + C94 >= -987
 R154: 500 C15 + 500 C29 + 500 C58 - C90 + C94 <= 1030
 R155: - 500 C15 - 500 C29 - 500 C58 - C90 + C94 >= -970
 R156: 500 C15 + 500 C31 + 500 C60 - C92 + C94 <= 1030
 R157: - 500 C15 - 500 C31 - 500 C60 - C92 + C94 >= -970
 R158: 500 C18 + 500 C32 + 500 C64 - C90 + C94 <= 1005
 R159: - 500 C18 - 500 C32 - 500 C64 - C90 + C94 >= -995
 R160: 500 C18 + 500 C34 + 500 C66 - C92 + C94 <= 1005
 R161: - 500 C18 - 500 C34 - 500 C66 - C92 + C94 >= -995
 R162: 500 C5 + 500 C21 + 500 C43 + C91 - C93 <= 1021
 R163: - 500 C5 - 500 C21 - 500 C43 + C91 - C93 >= -979
 R164: 500 C7 + 500 C21 + 500 C45 + C91 - C95 <= 1021
 R165: - 500 C7 - 500 C21 - 500 C45 + C91 - C95 >= -979
 R166: 500 C8 + 500 C24 + 500 C49 + C91 - C93 <= 1024
 R167: - 500 C8 - 500 C24 - 500 C49 + C91 - C93 >= -976
 R168: 500 C10 + 500 C24 + 500 C51 + C91 - C95 <= 1024
 R169: - 500 C10 - 500 C24 - 500 C51 + C91 - C95 >= -976
 R170: 500 C11 + 500 C27 + 500 C55 + C91 - C93 <= 1015
 R171: - 500 C11 - 500 C27 - 500 C55 + C91 - C93 >= -985
 R172: 500 C13 + 500 C27 + 500 C57 + C91 - C95 <= 1015
 R173: - 500 C13 - 500 C27 - 500 C57 + C91 - C95 >= -985
 R174: 500 C14 + 500 C30 + 500 C61 + C91 - C93 <= 1030
 R175: - 500 C14 - 500 C30 - 500 C61 + C91 - C93 >= -970
 R176: 500 C16 + 500 C30 + 500 C63 + C91 - C95 <= 1030
 R177: - 500 C16 - 500 C30 - 500 C63 + C91 - C95 >= -970
 R178: 500 C17 + 500 C33 + 500 C67 + C91 - C93 <= 1006
 R179: - 500 C17 - 500 C33 - 500 C67 + C91 - C93 >= -994
 R180: 500 C19 + 500 C33 + 500 C69 + C91 - C95 <= 1006
 R181: - 500 C19 - 500 C33 - 500 C69 + C91 - C95 >= -994
 R182: 500 C5 + 500 C35 + 500 C43 - C93 + C94 <= 1020
 R183: - 500 C5 - 500 C35 - 500 C43 - C93 + C94 >= -980
 R184: 500 C8 + 500 C36 + 500 C49 - C93 + C94 <= 1001
 R185: - 500 C8 - 500 C36 - 500 C49 - C93 + C94 >= -999
 R186: 500 C11 + 500 C37 + 500 C55 - C93 + C94 <= 1007
 R187: - 500 C11 - 500 C37 - 500 C55 - C93 + C94 >= -993
 R188: 500 C14 + 500 C38 + 500 C61 - C93 + C94 <= 1007
 R189: - 500 C14 - 500 C38 - 500 C61 - C93 + C94 >= -993
 R190: 500 C17 + 500 C39 + 500 C67 - C93 + C94 <= 1016
 R191: - 500 C17 - 500 C39 - 500 C67 - C93 + C94 >= -984
 R192: 100 C40 - C85 + C90 <= 107
 R193: - 100 C40 - C85 + C90 >= -93
 R194: 100 C41 - C85 + C91 <= 101
 R195: - 100 C41 - C85 + C91 >= -99
 R196: 100 C42 - C85 + C92 <= 111
 R197: - 100 C42 - C85 + C92 >= -89
 R198: 100 C46 - C86 + C90 <= 129
 R199: - 100 C46 - C86 + C90 >= -71
 R200: 100 C47 - C86 + C91 <= 119
 R201: - 100 C47 - C86 + C91 >= -81
 R202: 100 C48 - C86 + C92 <= 125
 R203: - 100 C48 - C86 + C92 >= -75
 R204: 100 C52 - C87 + C90 <= 127
 R205: - 100 C52 - C87 + C90 >= -73
 R206: 100 C53 - C87 + C91 <= 112
 R207: - 100 C53 - C87 + C91 >= -88
 R208: 100 C54 - C87 + C92 <= 109
 R209: - 100 C54 - C87 + C92 >= -91
 R210: 100 C58 - C88 + C90 <= 121
 R211: - 100 C58 - C88 + C90 >= -79
 R212: 100 C59 - C88 + C91 <= 125
 R213: - 100 C59 - C88 + C91 >= -75
 R214: 100 C60 - C88 + C92 <= 128
 R215: - 100 C60 - C88 + C92 >= -72
 R216: 100 C64 - C89 + C90 <= 114
 R217: - 100 C64 - C89 + C90 >= -86
 R218: 100 C65 - C89 + C91 <= 120
 R219: - 100 C65 - C89 + C91 >= -80
 R220: 100 C66 - C89 + C92 <= 112
 R221: - 100 C66 - C89 + C92 >= -88
 R222: 100 C43 - C85 + C93 <= 121
 R223: - 100 C43 - C85 + C93 >= -79
 R224: 100 C44 - C85 + C94 <= 110
 R225: - 100 C44 - C85 + C94 >= -90
 R226: 100 C45 - C85 + C95 <= 115
 R227: - 100 C45 - C85 + C95 >= -85
 R228: 100 C49 - C86 + C93 <= 121
 R229: - 100 C49 - C86 + C93 >= -79
 R230: 100 C50 - C86 + C94 <= 104
 R231: - 100 C50 - C86 + C94 >= -96
 R232: 100 C51 - C86 + C95 <= 119
 R233: - 100 C51 - C86 + C95 >= -81
 R234: 100 C55 - C87 + C93 <= 113
 R235: - 100 C55 - C87 + C93 >= -87
 R236: 100 C56 - C87 + C94 <= 127
 R237: - 100 C56 - C87 + C94 >= -73
 R238: 100 C57 - C87 + C95 <= 111
 R239: - 100 C57 - C87 + C95 >= -89
 R240: 100 C61 - C88 + C93 <= 104
 R241: - 100 C61 - C88 + C93 >= -96
 R242: 100 C62 - C88 + C94 <= 124
 R243: - 100 C62 - C88 + C94 >= -76
 R244: 100 C63 - C88 + C95 <= 104
 R245: - 100 C63 - C88 + C95 >= -96
 R246: 100 C67 - C89 + C93 <= 106
 R247: - 100 C67 - C89 + C93 >= -94
 R248: 100 C68 - C89 + C94 <= 126
 R249: - 100 C68 - C89 + C94 >= -74
 R250: 100 C69 - C89 + C95 <= 122
 R251: - 100 C69 - C89 + C95 >= -78
 R252: C90 - C91 <= -1
 R253: C91 - C92 <= -1
 R254: C93 - C94 <= -1
 R255: C94 - C95 <= -1
 R256: 29 C5 + 18 C6 + 12 C7 + 14 C20 + 21 C21 + 16 C22 + 7 C40 + C41
   + 11 C42 + 21 C43 + 10 C44 + 15 C45 <= 100
 R257: 8 C8 + 24 C9 + 28 C10 + 16 C23 + 24 C24 + 28 C25 + 29 C46 + 19 C47
   + 25 C48 + 21 C49 + 4 C50 + 19 C51 <= 100
 R258: 26 C11 + 13 C12 + 26 C13 + 5 C26 + 15 C27 + 11 C28 + 27 C52 + 12 C53
   + 9 C54 + 13 C55 + 27 C56 + 11 C57 <= 100
 R259: 30 C14 + 30 C15 + 21 C16 + 23 C29 + 30 C30 + 27 C31 + 21 C58
   + 25 C59 + 28 C60 + 4 C61 + 24 C62 + 4 C63 <= 100
 R260: 29 C17 + 5 C18 + 5 C19 + 28 C32 + 6 C33 + 20 C34 + 14 C64 + 20 C65
   + 12 C66 + 6 C67 + 26 C68 + 22 C69 <= 100
Bounds
Binaries
 C0 C1 C2 C3 C4 C5 C6 C7 C8 C9 C10 C11 C12 C13 C14 C15 C16 C17 C18 C19 C20
 C21 C22 C23 C24 C25 C26 C27 C28 C29 C30 C31 C32 C33 C34 C35 C36 C37 C38
 C39 C40 C41 C42 C43 C44 C45 C46 C47 C48 C49 C50 C51 C52 C53 C54 C55 C56
 C57 C58 C59 C60 C61 C62 C63 C64 C65 C66 C67 C68 C69 C70 C71 C72 C73 C74
 C75 C76 C77 C78 C79 C80 C81 C82 C83 C84
End
